n_students = 5;
n_days = 2;
n_classes = 2;
n_groups = 6;
n_locations = 2;
n_time_units_in_hour = 12;

being_late_treshold = 3;
late_to_disappointment_multiplier = 2;
break_to_disappointment_multiplier = 1;

student_can_teleport = [false, false, true, false, true];
student_loves_breaks = [false, true, true, false, false];
student_prefers = array2d(Student, Group, [
  8, -1, -1, 6, -1, -1,
  2, 2, 2, 2, 0, 6,
  7, 3, 6, 1, 7, 3,
  7, 6, 4, 3, -1, 1,
  1, -1, -1, -1, -1, -1
]);

class_duration = [18, 24];
class_size = [2, 2];
group_class = [1, 1, 1, 2, 2, 2];
group_start = [96, 96, 108, 96, 108, 110];
group_day = [1, 2, 2, 1, 1, 2];
group_location = [1, 1, 1, 1, 1, 2];
group_cohabitats = [{1, 4}];


travel_duration = array2d(Location, Location, [ 
  0, 3,
  3, 0
]);

% -1, 4, 8, 6, 2, 4,
%   2, 2, 2, 2, 0, 6,
%   7, 3, 6, 1, 7, 3,
%   7, 6, 4, 3, -1, 1,
%   1, -1, -1, -1, -1, -1